Instance Name : rc103
Date : 2022-07-21
Solution
Route 1 : 12 16 15 11 9 10 13 17 47 14
Route 2 : 88 78 79 73 60 100 70
Route 3 : 2 45 46 8 7 6 4 5 3 1
Route 4 : 69 98 53 55
Route 5 : 39 36 38 41 61 68
Route 6 : 42 44 43 40 35 37 72 54 81
Route 7 : 96 71 93 94 80
Route 8 : 92 62 50 67 84 56 66
Route 9 : 65 99 52 86 74 57 83 90
Route 10 : 82 59 87 97 75 58 77
Route 11 : 20 23 22 49 19 18 48 21 25 24
Route 12 : 64 51 76 89 63 85 95 91
Route 13 : 33 27 30 32 28 26 29 31 34
